p cnf 224 1010
153 156 0
118 122 160 0
110 138 0
87 101 166 0
67 92 112 121 0
125 133 143 147 152 0
130 141 158 188 0
98 104 116 0
85 103 144 193 0
76 77 81 84 88 195 0
75 106 134 0
69 72 74 127 131 0
155 161 0
78 117 0
71 114 135 0
65 123 204 0
58 60 63 96 0
83 164 167 169 0
82 89 0
107 170 0
172 173 175 210 0
176 177 178 214 0
119 162 179 0
180 183 0
93 185 186 0
97 105 189 0
145 194 0
108 196 198 0
182 199 0
94 201 202 0
203 205 0
95 100 191 0
90 111 197 0
73 132 206 207 0
128 171 174 209 0
211 212 0
163 213 215 0
216 218 220 222 0
79 223 224 0
136 184 0
91 120 149 0
124 146 151 0
55 56 57 115 0
53 54 192 0
-52 -122 0
-51 -122 0
-50 -122 0
-122 -190 0
-49 -122 0
-51 -52 0
-50 -52 0
-52 -190 0
-49 -52 0
-50 -51 0
-51 -190 0
-49 -51 0
-50 -190 0
-49 -50 0
-49 -190 0
-141 -143 0
-98 -143 0
-143 -193 0
-84 -143 0
-75 -143 0
-98 -141 0
-141 -193 0
-84 -141 0
-75 -141 0
-98 -193 0
-84 -98 0
-75 -98 0
-84 -193 0
-75 -193 0
-75 -84 0
-47 -161 0
-47 -117 0
-46 -47 0
-47 -65 0
-47 -109 0
-117 -161 0
-46 -161 0
-65 -161 0
-109 -161 0
-46 -117 0
-65 -117 0
-109 -117 0
-46 -65 0
-46 -109 0
-65 -109 0
-148 -185 0
-150 -185 0
-185 -189 0
-102 -185 0
-44 -185 0
-148 -150 0
-148 -189 0
-102 -148 0
-44 -148 0
-150 -189 0
-102 -150 0
-44 -150 0
-102 -189 0
-44 -189 0
-44 -102 0
-42 -68 0
-41 -68 0
-68 -154 0
-68 -201 0
-68 -113 0
-41 -42 0
-42 -154 0
-42 -201 0
-42 -113 0
-41 -154 0
-41 -201 0
-41 -113 0
-154 -201 0
-113 -154 0
-113 -201 0
-39 -62 0
-62 -165 0
-62 -90 0
-62 -209 0
-62 -211 0
-39 -165 0
-39 -90 0
-39 -209 0
-39 -211 0
-90 -165 0
-165 -209 0
-165 -211 0
-90 -209 0
-90 -211 0
-209 -211 0
-122 -143 0
-47 -122 0
-122 -185 0
-68 -122 0
-62 -122 0
-47 -143 0
-143 -185 0
-68 -143 0
-62 -143 0
-47 -185 0
-47 -68 0
-47 -62 0
-68 -185 0
-62 -185 0
-62 -68 0
-52 -141 0
-52 -161 0
-52 -148 0
-42 -52 0
-39 -52 0
-141 -161 0
-141 -148 0
-42 -141 0
-39 -141 0
-148 -161 0
-42 -161 0
-39 -161 0
-42 -148 0
-39 -148 0
-39 -42 0
-51 -98 0
-51 -117 0
-51 -150 0
-41 -51 0
-51 -165 0
-98 -117 0
-98 -150 0
-41 -98 0
-98 -165 0
-117 -150 0
-41 -117 0
-117 -165 0
-41 -150 0
-150 -165 0
-41 -165 0
-50 -193 0
-46 -50 0
-50 -189 0
-50 -154 0
-50 -90 0
-46 -193 0
-189 -193 0
-154 -193 0
-90 -193 0
-46 -189 0
-46 -154 0
-46 -90 0
-154 -189 0
-90 -189 0
-90 -154 0
-84 -190 0
-65 -190 0
-102 -190 0
-190 -201 0
-190 -209 0
-65 -84 0
-84 -102 0
-84 -201 0
-84 -209 0
-65 -102 0
-65 -201 0
-65 -209 0
-102 -201 0
-102 -209 0
-201 -209 0
-49 -75 0
-49 -109 0
-44 -49 0
-49 -113 0
-49 -211 0
-75 -109 0
-44 -75 0
-75 -113 0
-75 -211 0
-44 -109 0
-109 -113 0
-109 -211 0
-44 -113 0
-44 -211 0
-113 -211 0
-92 -147 0
-38 -92 0
-92 -106 0
-74 -92 0
-38 -147 0
-106 -147 0
-74 -147 0
-38 -106 0
-38 -74 0
-74 -106 0
-35 -36 0
-36 -135 0
-34 -36 0
-36 -96 0
-35 -135 0
-34 -35 0
-35 -96 0
-34 -135 0
-96 -135 0
-34 -96 0
-33 -83 0
-33 -173 0
-33 -162 0
-33 -217 0
-83 -173 0
-83 -162 0
-83 -217 0
-162 -173 0
-173 -217 0
-162 -217 0
-48 -191 0
-191 -206 0
-191 -212 0
-191 -213 0
-48 -206 0
-48 -212 0
-48 -213 0
-206 -212 0
-206 -213 0
-212 -213 0
-79 -216 0
-140 -216 0
-192 -216 0
-31 -216 0
-79 -140 0
-79 -192 0
-31 -79 0
-140 -192 0
-31 -140 0
-31 -192 0
-36 -92 0
-33 -92 0
-92 -191 0
-92 -216 0
-33 -36 0
-36 -191 0
-36 -216 0
-33 -191 0
-33 -216 0
-191 -216 0
-35 -147 0
-83 -147 0
-48 -147 0
-79 -147 0
-35 -83 0
-35 -48 0
-35 -79 0
-48 -83 0
-79 -83 0
-48 -79 0
-38 -135 0
-38 -173 0
-38 -206 0
-38 -140 0
-135 -173 0
-135 -206 0
-135 -140 0
-173 -206 0
-140 -173 0
-140 -206 0
-34 -106 0
-106 -162 0
-106 -212 0
-106 -192 0
-34 -162 0
-34 -212 0
-34 -192 0
-162 -212 0
-162 -192 0
-192 -212 0
-74 -96 0
-74 -217 0
-74 -213 0
-31 -74 0
-96 -217 0
-96 -213 0
-31 -96 0
-213 -217 0
-31 -217 0
-31 -213 0
-104 -144 0
-30 -104 0
-81 -104 0
-104 -131 0
-30 -144 0
-81 -144 0
-131 -144 0
-30 -81 0
-30 -131 0
-81 -131 0
-29 -107 0
-107 -172 0
-107 -176 0
-107 -219 0
-29 -172 0
-29 -176 0
-29 -219 0
-172 -176 0
-172 -219 0
-176 -219 0
-27 -28 0
-28 -199 0
-28 -202 0
-28 -203 0
-27 -199 0
-27 -202 0
-27 -203 0
-199 -202 0
-199 -203 0
-202 -203 0
-111 -168 0
-168 -207 0
-128 -168 0
-168 -215 0
-111 -207 0
-111 -128 0
-111 -215 0
-128 -207 0
-207 -215 0
-128 -215 0
-91 -146 0
-26 -91 0
-57 -91 0
-37 -91 0
-26 -146 0
-57 -146 0
-37 -146 0
-26 -57 0
-26 -37 0
-37 -57 0
-104 -107 0
-28 -104 0
-104 -168 0
-91 -104 0
-28 -107 0
-107 -168 0
-91 -107 0
-28 -168 0
-28 -91 0
-91 -168 0
-29 -144 0
-27 -144 0
-111 -144 0
-144 -146 0
-27 -29 0
-29 -111 0
-29 -146 0
-27 -111 0
-27 -146 0
-111 -146 0
-30 -172 0
-30 -199 0
-30 -207 0
-26 -30 0
-172 -199 0
-172 -207 0
-26 -172 0
-199 -207 0
-26 -199 0
-26 -207 0
-81 -176 0
-81 -202 0
-81 -128 0
-57 -81 0
-176 -202 0
-128 -176 0
-57 -176 0
-128 -202 0
-57 -202 0
-57 -128 0
-131 -219 0
-131 -203 0
-131 -215 0
-37 -131 0
-203 -219 0
-215 -219 0
-37 -219 0
-203 -215 0
-37 -203 0
-37 -215 0
-153 -160 0
-153 -181 0
-25 -153 0
-101 -153 0
-160 -181 0
-25 -160 0
-101 -160 0
-25 -181 0
-101 -181 0
-25 -101 0
-112 -125 0
-112 -130 0
-77 -112 0
-72 -112 0
-125 -130 0
-77 -125 0
-72 -125 0
-77 -130 0
-72 -130 0
-72 -77 0
-24 -164 0
-24 -82 0
-24 -177 0
-24 -221 0
-82 -164 0
-164 -177 0
-164 -221 0
-82 -177 0
-82 -221 0
-177 -221 0
-93 -180 0
-23 -180 0
-22 -180 0
-108 -180 0
-23 -93 0
-22 -93 0
-93 -108 0
-22 -23 0
-23 -108 0
-22 -108 0
-59 -100 0
-21 -100 0
-100 -171 0
-100 -163 0
-21 -59 0
-59 -171 0
-59 -163 0
-21 -171 0
-21 -163 0
-163 -171 0
-112 -153 0
-24 -153 0
-153 -180 0
-100 -153 0
-24 -112 0
-112 -180 0
-100 -112 0
-24 -180 0
-24 -100 0
-100 -180 0
-125 -160 0
-160 -164 0
-93 -160 0
-59 -160 0
-125 -164 0
-93 -125 0
-59 -125 0
-93 -164 0
-59 -164 0
-59 -93 0
-130 -181 0
-82 -181 0
-23 -181 0
-21 -181 0
-82 -130 0
-23 -130 0
-21 -130 0
-23 -82 0
-21 -82 0
-21 -23 0
-25 -77 0
-25 -177 0
-22 -25 0
-25 -171 0
-77 -177 0
-22 -77 0
-77 -171 0
-22 -177 0
-171 -177 0
-22 -171 0
-72 -101 0
-101 -221 0
-101 -108 0
-101 -163 0
-72 -221 0
-72 -108 0
-72 -163 0
-108 -221 0
-163 -221 0
-108 -163 0
-45 -118 0
-64 -118 0
-110 -118 0
-19 -118 0
-18 -118 0
-87 -118 0
-45 -64 0
-45 -110 0
-19 -45 0
-18 -45 0
-45 -87 0
-64 -110 0
-19 -64 0
-18 -64 0
-64 -87 0
-19 -110 0
-18 -110 0
-87 -110 0
-18 -19 0
-19 -87 0
-18 -87 0
-152 -188 0
-103 -152 0
-43 -152 0
-76 -152 0
-134 -152 0
-69 -152 0
-103 -188 0
-43 -188 0
-76 -188 0
-134 -188 0
-69 -188 0
-43 -103 0
-76 -103 0
-103 -134 0
-69 -103 0
-43 -76 0
-43 -134 0
-43 -69 0
-76 -134 0
-69 -76 0
-69 -134 0
-40 -155 0
-40 -200 0
-40 -114 0
-40 -123 0
-40 -137 0
-40 -63 0
-155 -200 0
-114 -155 0
-123 -155 0
-137 -155 0
-63 -155 0
-114 -200 0
-123 -200 0
-137 -200 0
-63 -200 0
-114 -123 0
-114 -137 0
-63 -114 0
-123 -137 0
-63 -123 0
-63 -137 0
-89 -167 0
-167 -208 0
-167 -210 0
-167 -178 0
-167 -179 0
-17 -167 0
-89 -208 0
-89 -210 0
-89 -178 0
-89 -179 0
-17 -89 0
-208 -210 0
-178 -208 0
-179 -208 0
-17 -208 0
-178 -210 0
-179 -210 0
-17 -210 0
-178 -179 0
-17 -178 0
-17 -179 0
-66 -186 0
-105 -186 0
-145 -186 0
-16 -186 0
-15 -186 0
-186 -196 0
-66 -105 0
-66 -145 0
-16 -66 0
-15 -66 0
-66 -196 0
-105 -145 0
-16 -105 0
-15 -105 0
-105 -196 0
-16 -145 0
-15 -145 0
-145 -196 0
-15 -16 0
-16 -196 0
-15 -196 0
-13 -126 0
-126 -159 0
-126 -182 0
-94 -126 0
-70 -126 0
-126 -205 0
-13 -159 0
-13 -182 0
-13 -94 0
-13 -70 0
-13 -205 0
-159 -182 0
-94 -159 0
-70 -159 0
-159 -205 0
-94 -182 0
-70 -182 0
-182 -205 0
-70 -94 0
-94 -205 0
-70 -205 0
-136 -223 0
-124 -223 0
-129 -223 0
-56 -223 0
-54 -223 0
-11 -223 0
-124 -136 0
-129 -136 0
-56 -136 0
-54 -136 0
-11 -136 0
-124 -129 0
-56 -124 0
-54 -124 0
-11 -124 0
-56 -129 0
-54 -129 0
-11 -129 0
-54 -56 0
-11 -56 0
-11 -54 0
-118 -152 0
-40 -118 0
-118 -167 0
-118 -186 0
-118 -126 0
-118 -223 0
-40 -152 0
-152 -167 0
-152 -186 0
-126 -152 0
-152 -223 0
-40 -167 0
-40 -186 0
-40 -126 0
-40 -223 0
-167 -186 0
-126 -167 0
-167 -223 0
-126 -186 0
-186 -223 0
-126 -223 0
-45 -188 0
-45 -155 0
-45 -89 0
-45 -66 0
-13 -45 0
-45 -136 0
-155 -188 0
-89 -188 0
-66 -188 0
-13 -188 0
-136 -188 0
-89 -155 0
-66 -155 0
-13 -155 0
-136 -155 0
-66 -89 0
-13 -89 0
-89 -136 0
-13 -66 0
-66 -136 0
-13 -136 0
-64 -103 0
-64 -200 0
-64 -208 0
-64 -105 0
-64 -159 0
-64 -124 0
-103 -200 0
-103 -208 0
-103 -105 0
-103 -159 0
-103 -124 0
-200 -208 0
-105 -200 0
-159 -200 0
-124 -200 0
-105 -208 0
-159 -208 0
-124 -208 0
-105 -159 0
-105 -124 0
-124 -159 0
-43 -110 0
-110 -114 0
-110 -210 0
-110 -145 0
-110 -182 0
-110 -129 0
-43 -114 0
-43 -210 0
-43 -145 0
-43 -182 0
-43 -129 0
-114 -210 0
-114 -145 0
-114 -182 0
-114 -129 0
-145 -210 0
-182 -210 0
-129 -210 0
-145 -182 0
-129 -145 0
-129 -182 0
-19 -76 0
-19 -123 0
-19 -178 0
-16 -19 0
-19 -94 0
-19 -56 0
-76 -123 0
-76 -178 0
-16 -76 0
-76 -94 0
-56 -76 0
-123 -178 0
-16 -123 0
-94 -123 0
-56 -123 0
-16 -178 0
-94 -178 0
-56 -178 0
-16 -94 0
-16 -56 0
-56 -94 0
-18 -134 0
-18 -137 0
-18 -179 0
-15 -18 0
-18 -70 0
-18 -54 0
-134 -137 0
-134 -179 0
-15 -134 0
-70 -134 0
-54 -134 0
-137 -179 0
-15 -137 0
-70 -137 0
-54 -137 0
-15 -179 0
-70 -179 0
-54 -179 0
-15 -70 0
-15 -54 0
-54 -70 0
-69 -87 0
-63 -87 0
-17 -87 0
-87 -196 0
-87 -205 0
-11 -87 0
-63 -69 0
-17 -69 0
-69 -196 0
-69 -205 0
-11 -69 0
-17 -63 0
-63 -196 0
-63 -205 0
-11 -63 0
-17 -196 0
-17 -205 0
-11 -17 0
-196 -205 0
-11 -196 0
-11 -205 0
-116 -158 0
-85 -158 0
-10 -158 0
-85 -116 0
-10 -116 0
-10 -85 0
-139 -142 0
-97 -142 0
-142 -194 0
-97 -139 0
-139 -194 0
-97 -194 0
-9 -86 0
-86 -197 0
-86 -132 0
-9 -197 0
-9 -132 0
-132 -197 0
-149 -184 0
-151 -184 0
-184 -187 0
-149 -151 0
-149 -187 0
-151 -187 0
-142 -158 0
-86 -158 0
-158 -184 0
-86 -142 0
-142 -184 0
-86 -184 0
-116 -139 0
-9 -116 0
-116 -149 0
-9 -139 0
-139 -149 0
-9 -149 0
-85 -97 0
-85 -197 0
-85 -151 0
-97 -197 0
-97 -151 0
-151 -197 0
-10 -194 0
-10 -132 0
-10 -187 0
-132 -194 0
-187 -194 0
-132 -187 0
-121 -133 0
-8 -121 0
-88 -121 0
-8 -133 0
-88 -133 0
-8 -88 0
-6 -169 0
-6 -175 0
-6 -214 0
-169 -175 0
-169 -214 0
-175 -214 0
-32 -95 0
-73 -95 0
-95 -174 0
-32 -73 0
-32 -174 0
-73 -174 0
-218 -224 0
-157 -218 0
-115 -218 0
-157 -224 0
-115 -224 0
-115 -157 0
-6 -121 0
-95 -121 0
-121 -218 0
-6 -95 0
-6 -218 0
-95 -218 0
-133 -169 0
-32 -133 0
-133 -224 0
-32 -169 0
-169 -224 0
-32 -224 0
-8 -175 0
-8 -73 0
-8 -157 0
-73 -175 0
-157 -175 0
-73 -157 0
-88 -214 0
-88 -174 0
-88 -115 0
-174 -214 0
-115 -214 0
-115 -174 0
-5 -78 0
-5 -99 0
-5 -60 0
-78 -99 0
-60 -78 0
-60 -99 0
-20 -170 0
-20 -119 0
-4 -20 0
-119 -170 0
-4 -170 0
-4 -119 0
-3 -183 0
-80 -183 0
-183 -198 0
-3 -80 0
-3 -198 0
-80 -198 0
-120 -220 0
-53 -220 0
-7 -220 0
-53 -120 0
-7 -120 0
-7 -53 0
-5 -20 0
-5 -183 0
-5 -220 0
-20 -183 0
-20 -220 0
-183 -220 0
-78 -170 0
-3 -78 0
-78 -120 0
-3 -170 0
-120 -170 0
-3 -120 0
-99 -119 0
-80 -99 0
-53 -99 0
-80 -119 0
-53 -119 0
-53 -80 0
-4 -60 0
-60 -198 0
-7 -60 0
-4 -198 0
-4 -7 0
-7 -198 0
-138 -156 0
-61 -156 0
-156 -166 0
-61 -138 0
-138 -166 0
-61 -166 0
-14 -67 0
-67 -195 0
-67 -127 0
-14 -195 0
-14 -127 0
-127 -195 0
-12 -71 0
-12 -204 0
-12 -58 0
-71 -204 0
-58 -71 0
-58 -204 0
-2 -222 0
-55 -222 0
-1 -222 0
-2 -55 0
-1 -2 0
-1 -55 0
-67 -156 0
-12 -156 0
-156 -222 0
-12 -67 0
-67 -222 0
-12 -222 0
-14 -138 0
-71 -138 0
-2 -138 0
-14 -71 0
-2 -14 0
-2 -71 0
-61 -195 0
-61 -204 0
-55 -61 0
-195 -204 0
-55 -195 0
-55 -204 0
-127 -166 0
-58 -166 0
-1 -166 0
-58 -127 0
-1 -127 0
-1 -58 0
